29702 35813 
29613 35855 
28323 36252 
28475 36203 
28095 36275 
29655 35834 
29993 35667 
26878 36556 
31157 35210 
28438 36205 
27159 36474 
28058 36277 
26972 36522 
27954 36286 
29576 35857 
28200 36264 
27253 36440 
27009 36515 
